12
-1 39 22 71 18 79 81 7 38 53 44 18
42 -1 14 69 26 26 63 45 50 24 64 25
43 1 -1 13 18 49 57 41 47 64 49 24
41 12 28 -1 62 53 20 23 10 73 1 59
26 59 33 30 -1 13 12 37 37 21 41 36
96 87 55 26 30 -1 79 91 9 40 20 50
26 92 61 48 64 9 -1 82 20 44 61 81
27 74 21 28 84 85 25 -1 67 39 25 88
19 70 24 96 66 84 14 25 -1 96 6 18
71 72 42 82 44 89 99 70 62 -1 12 52
92 46 50 17 7 31 47 69 30 91 -1 45
28 16 9 27 28 51 62 65 60 4 92 -1
